************************************************************************
file with basedata            : mm56_.bas
initial value random generator: 363759672
************************************************************************
projects                      :  1
jobs (incl. supersource/sink ):  12
horizon                       :  84
RESOURCES
  - renewable                 :  2   R
  - nonrenewable              :  2   N
  - doubly constrained        :  0   D
************************************************************************
PROJECT INFORMATION:
pronr.  #jobs rel.date duedate tardcost  MPM-Time
    1     10      0       14        1       14
************************************************************************
PRECEDENCE RELATIONS:
jobnr.    #modes  #successors   successors
   0        1          3           1   2   3
   1        3          3           4   7   8
   2        3          2           9  10
   3        3          2           4   8
   4        3          1           5
   5        3          1           6
   6        3          2           9  10
   7        3          1           9
   8        3          1          11
   9        3          1          11
  10        3          1          11
  11        1          0        
************************************************************************
REQUESTS/DURATIONS:
jobnr. mode duration  R 1  R 2  R 3  R 4  E(W 1)  E(W 2)
------------------------------------------------------------------------
  0      1     0       0    0    0    0     0       0
  1      1     3       9    9    8   10    54      54
  2      1     2       7    9    9    8    32      34
  3      1     6       9    5    5    4    84      54
  4      1     2       5    6    9    7    22      32
  5      1     2       1    8    7    7    20      28
  6      1     3       6    5    8    7    33      45
  7      1     9       7    8    5    7    135      108
  8      1     3       8    6    9    9    42      54
  9      1     1       5    5    3    5    10       8
 10      1     1       6    9    9   10    15      19
 11      1     0       0    0    0    0     0       0
************************************************************************
RESOURCEAVAILABILITIES:
  R 1  R 2
   39   146
************************************************************************
RESOURCE LIMITS:
jobnr.  l(R 1)  u(R 1)  l(R 2)  u(R 2)
------------------------------------------------------------------------
  0        0       0       0       0
  1       10      18       9      18
  2        9      16       9      17
  3        8      14       5       9
  4        6      11       9      16
  5        5      10       8      14
  6        6      11       8      15
  7        8      15       7      12
  8        7      14      10      18
  9        6      10       5       8
 10        8      15      10      19
 11        0       0       0       0
************************************************************************
SCENARIOS:
------------------------------------------------------------------------
RESOURCE k = 1
s = 1: (0, 46, 27, 76, 24, 12, 42, 170, 34, 10, 14, 0)
s = 2: (0, 45, 37, 65, 26, 17, 26, 92, 47, 12, 16, 0)
s = 3: (0, 65, 32, 100, 22, 16, 38, 198, 40, 7, 12, 0)
s = 4: (0, 39, 22, 62, 22, 19, 25, 87, 49, 12, 16, 0)
s = 5: (0, 62, 27, 68, 18, 25, 22, 130, 50, 6, 12, 0)
s = 6: (0, 38, 39, 128, 31, 27, 25, 136, 40, 7, 13, 0)
s = 7: (0, 46, 31, 77, 18, 31, 28, 120, 62, 7, 12, 0)
s = 8: (0, 42, 19, 94, 33, 23, 33, 134, 25, 16, 11, 0)
s = 9: (0, 53, 46, 50, 20, 26, 49, 109, 50, 9, 16, 0)
s = 10: (0, 33, 29, 93, 23, 32, 41, 104, 45, 12, 15, 0)
s = 11: (0, 63, 43, 75, 14, 23, 26, 176, 39, 6, 12, 0)
s = 12: (0, 61, 31, 66, 14, 14, 34, 183, 39, 10, 15, 0)
s = 13: (0, 51, 39, 84, 22, 14, 38, 185, 30, 7, 22, 0)
s = 14: (0, 61, 25, 100, 27, 26, 33, 80, 42, 9, 12, 0)
s = 15: (0, 32, 46, 98, 24, 22, 39, 150, 34, 16, 18, 0)
s = 16: (0, 65, 34, 87, 38, 19, 21, 118, 64, 8, 25, 0)
s = 17: (0, 46, 39, 100, 24, 24, 34, 182, 65, 9, 14, 0)
s = 18: (0, 53, 27, 57, 20, 34, 47, 95, 48, 12, 22, 0)
s = 19: (0, 64, 32, 95, 20, 16, 34, 94, 35, 9, 11, 0)
s = 20: (0, 52, 37, 104, 18, 33, 30, 166, 38, 12, 12, 0)
s = 21: (0, 39, 33, 74, 28, 12, 35, 79, 58, 17, 19, 0)
s = 22: (0, 35, 35, 56, 23, 20, 29, 147, 34, 11, 10, 0)
s = 23: (0, 65, 49, 78, 30, 18, 28, 116, 68, 7, 14, 0)
s = 24: (0, 48, 27, 125, 28, 21, 25, 103, 33, 10, 26, 0)
s = 25: (0, 69, 38, 122, 16, 21, 42, 111, 36, 9, 13, 0)
s = 26: (0, 61, 33, 82, 22, 29, 24, 153, 51, 10, 15, 0)
s = 27: (0, 63, 40, 85, 18, 15, 36, 181, 58, 14, 19, 0)
s = 28: (0, 49, 25, 59, 30, 15, 37, 148, 57, 11, 14, 0)
s = 29: (0, 51, 34, 57, 27, 23, 30, 179, 26, 16, 15, 0)
s = 30: (0, 75, 45, 103, 31, 21, 29, 88, 36, 10, 10, 0)
s = 31: (0, 43, 32, 115, 22, 25, 19, 175, 35, 10, 16, 0)
s = 32: (0, 55, 25, 57, 35, 21, 20, 86, 31, 8, 13, 0)
s = 33: (0, 47, 37, 61, 22, 13, 30, 103, 39, 10, 12, 0)
s = 34: (0, 49, 39, 80, 23, 29, 22, 117, 38, 7, 14, 0)
s = 35: (0, 33, 39, 63, 27, 15, 41, 151, 39, 7, 17, 0)
s = 36: (0, 64, 23, 64, 18, 17, 41, 104, 32, 10, 11, 0)
s = 37: (0, 44, 28, 53, 16, 16, 25, 76, 40, 10, 13, 0)
s = 38: (0, 66, 43, 126, 25, 18, 29, 110, 33, 10, 24, 0)
s = 39: (0, 46, 44, 95, 19, 15, 34, 185, 43, 12, 11, 0)
s = 40: (0, 52, 34, 70, 16, 12, 39, 94, 31, 13, 17, 0)
s = 41: (0, 54, 26, 47, 18, 15, 27, 92, 32, 10, 17, 0)
s = 42: (0, 78, 54, 96, 28, 20, 41, 163, 59, 8, 13, 0)
s = 43: (0, 71, 32, 70, 22, 29, 30, 196, 40, 9, 12, 0)
s = 44: (0, 65, 34, 61, 17, 14, 50, 185, 40, 11, 11, 0)
s = 45: (0, 46, 19, 54, 20, 18, 27, 121, 32, 9, 15, 0)
s = 46: (0, 45, 22, 101, 25, 21, 51, 136, 35, 10, 20, 0)
s = 47: (0, 39, 27, 90, 36, 18, 32, 138, 40, 14, 16, 0)
s = 48: (0, 35, 26, 77, 37, 21, 31, 109, 61, 16, 23, 0)
s = 49: (0, 41, 41, 104, 29, 13, 27, 132, 49, 6, 10, 0)
s = 50: (0, 60, 26, 98, 13, 20, 32, 141, 25, 9, 12, 0)
s = 51: (0, 33, 25, 51, 26, 22, 52, 109, 44, 6, 14, 0)
s = 52: (0, 54, 24, 89, 20, 15, 45, 136, 45, 13, 13, 0)
s = 53: (0, 42, 21, 71, 19, 15, 18, 87, 39, 13, 16, 0)
s = 54: (0, 78, 31, 60, 26, 27, 24, 176, 46, 12, 13, 0)
s = 55: (0, 38, 23, 121, 23, 22, 22, 125, 45, 8, 18, 0)
s = 56: (0, 38, 42, 99, 23, 21, 31, 154, 61, 15, 18, 0)
s = 57: (0, 61, 44, 64, 19, 12, 28, 204, 50, 8, 15, 0)
s = 58: (0, 63, 27, 74, 22, 22, 33, 100, 38, 13, 15, 0)
s = 59: (0, 39, 28, 78, 32, 28, 41, 160, 25, 8, 19, 0)
s = 60: (0, 64, 46, 81, 20, 13, 19, 123, 41, 9, 15, 0)
s = 61: (0, 71, 18, 63, 20, 32, 37, 113, 28, 14, 22, 0)
s = 62: (0, 80, 39, 79, 36, 22, 51, 128, 28, 8, 12, 0)
s = 63: (0, 64, 39, 102, 27, 20, 34, 159, 45, 7, 10, 0)
s = 64: (0, 68, 26, 91, 26, 15, 40, 136, 39, 13, 14, 0)
s = 65: (0, 45, 33, 141, 19, 32, 34, 139, 33, 12, 18, 0)
s = 66: (0, 41, 38, 68, 33, 31, 23, 214, 46, 7, 22, 0)
s = 67: (0, 57, 30, 131, 22, 22, 38, 145, 38, 9, 25, 0)
s = 68: (0, 70, 51, 70, 14, 19, 41, 134, 48, 7, 15, 0)
s = 69: (0, 41, 21, 67, 26, 26, 27, 177, 54, 11, 14, 0)
s = 70: (0, 53, 29, 66, 17, 15, 44, 139, 41, 9, 14, 0)
s = 71: (0, 43, 29, 94, 30, 22, 40, 170, 30, 12, 12, 0)
s = 72: (0, 65, 32, 71, 27, 22, 57, 111, 37, 6, 17, 0)
s = 73: (0, 99, 26, 130, 27, 26, 27, 132, 42, 15, 22, 0)
s = 74: (0, 70, 25, 87, 23, 12, 30, 211, 42, 10, 19, 0)
s = 75: (0, 39, 26, 67, 14, 15, 29, 114, 47, 12, 12, 0)
s = 76: (0, 90, 51, 98, 34, 20, 40, 144, 31, 7, 16, 0)
s = 77: (0, 41, 30, 81, 36, 29, 38, 106, 28, 11, 18, 0)
s = 78: (0, 45, 21, 48, 25, 21, 27, 132, 29, 7, 13, 0)
s = 79: (0, 38, 32, 78, 14, 19, 29, 81, 47, 11, 11, 0)
s = 80: (0, 36, 30, 59, 23, 16, 25, 177, 61, 8, 16, 0)
s = 81: (0, 40, 49, 91, 24, 28, 21, 141, 25, 12, 11, 0)
s = 82: (0, 82, 34, 77, 23, 15, 42, 157, 32, 7, 10, 0)
s = 83: (0, 65, 34, 86, 27, 26, 38, 102, 29, 12, 14, 0)
s = 84: (0, 38, 45, 73, 32, 16, 32, 196, 73, 11, 18, 0)
s = 85: (0, 63, 51, 81, 17, 23, 42, 163, 25, 8, 12, 0)
s = 86: (0, 41, 32, 97, 35, 17, 41, 136, 35, 14, 17, 0)
s = 87: (0, 43, 19, 63, 16, 17, 45, 210, 65, 8, 26, 0)
s = 88: (0, 82, 47, 93, 23, 26, 20, 104, 44, 14, 21, 0)
s = 89: (0, 58, 37, 49, 30, 26, 22, 180, 29, 17, 12, 0)
s = 90: (0, 64, 35, 64, 27, 16, 33, 170, 40, 9, 13, 0)
s = 91: (0, 39, 22, 102, 28, 20, 27, 151, 32, 9, 13, 0)
s = 92: (0, 37, 44, 73, 20, 22, 26, 82, 32, 11, 10, 0)
s = 93: (0, 35, 35, 100, 28, 27, 36, 151, 27, 7, 20, 0)
s = 94: (0, 31, 35, 50, 39, 17, 25, 121, 27, 11, 23, 0)
s = 95: (0, 39, 25, 94, 27, 16, 37, 118, 27, 7, 12, 0)
s = 96: (0, 37, 43, 76, 20, 20, 30, 75, 47, 9, 15, 0)
s = 97: (0, 58, 39, 108, 16, 12, 32, 99, 69, 8, 9, 0)
s = 98: (0, 72, 36, 65, 21, 15, 35, 121, 28, 14, 20, 0)
s = 99: (0, 70, 40, 56, 14, 27, 27, 115, 31, 8, 13, 0)
s = 100: (0, 87, 32, 85, 17, 22, 38, 106, 35, 7, 10, 0)
s = 101: (0, 49, 38, 85, 25, 22, 18, 121, 42, 11, 13, 0)
s = 102: (0, 35, 51, 55, 18, 15, 31, 78, 51, 9, 16, 0)
s = 103: (0, 37, 26, 78, 13, 15, 33, 151, 30, 7, 18, 0)
s = 104: (0, 35, 20, 142, 25, 13, 42, 109, 41, 9, 14, 0)
s = 105: (0, 48, 22, 64, 32, 17, 28, 121, 24, 14, 11, 0)
s = 106: (0, 80, 44, 82, 28, 14, 44, 140, 27, 7, 20, 0)
s = 107: (0, 42, 21, 80, 20, 22, 18, 106, 55, 10, 16, 0)
s = 108: (0, 58, 23, 61, 38, 22, 30, 173, 38, 9, 10, 0)
s = 109: (0, 65, 28, 89, 30, 20, 20, 95, 43, 13, 12, 0)
s = 110: (0, 58, 18, 98, 18, 23, 32, 75, 36, 14, 23, 0)
s = 111: (0, 42, 30, 107, 22, 26, 25, 104, 67, 7, 18, 0)
s = 112: (0, 47, 27, 119, 30, 20, 30, 103, 49, 14, 13, 0)
s = 113: (0, 51, 58, 73, 36, 11, 26, 145, 35, 7, 11, 0)
s = 114: (0, 46, 44, 109, 19, 18, 22, 124, 28, 6, 14, 0)
s = 115: (0, 49, 21, 52, 31, 18, 29, 77, 39, 8, 16, 0)
s = 116: (0, 42, 38, 112, 13, 22, 26, 98, 42, 11, 11, 0)
s = 117: (0, 63, 37, 63, 14, 28, 35, 160, 23, 10, 12, 0)
s = 118: (0, 39, 47, 145, 29, 24, 22, 146, 29, 8, 11, 0)
s = 119: (0, 76, 43, 52, 18, 15, 21, 145, 49, 6, 13, 0)
s = 120: (0, 90, 40, 120, 12, 21, 27, 141, 49, 16, 23, 0)
s = 121: (0, 63, 25, 131, 28, 13, 39, 90, 34, 9, 14, 0)
s = 122: (0, 78, 26, 110, 26, 24, 26, 202, 50, 11, 21, 0)
s = 123: (0, 47, 22, 77, 18, 18, 36, 121, 44, 8, 15, 0)
s = 124: (0, 55, 41, 108, 26, 20, 35, 180, 43, 7, 14, 0)
s = 125: (0, 49, 44, 64, 14, 31, 42, 235, 70, 7, 11, 0)
s = 126: (0, 49, 24, 83, 18, 12, 34, 105, 46, 7, 10, 0)
s = 127: (0, 38, 36, 79, 22, 16, 21, 191, 26, 14, 16, 0)
s = 128: (0, 60, 19, 60, 19, 22, 49, 129, 48, 15, 16, 0)
s = 129: (0, 51, 24, 142, 21, 11, 40, 87, 61, 12, 15, 0)
s = 130: (0, 51, 25, 54, 32, 28, 36, 126, 40, 9, 18, 0)
s = 131: (0, 39, 30, 101, 15, 19, 23, 134, 46, 11, 15, 0)
s = 132: (0, 44, 38, 80, 27, 12, 42, 88, 48, 12, 21, 0)
s = 133: (0, 53, 24, 101, 14, 13, 23, 98, 33, 6, 14, 0)
s = 134: (0, 43, 41, 60, 15, 12, 32, 83, 39, 10, 12, 0)
s = 135: (0, 54, 28, 65, 14, 22, 28, 141, 43, 9, 10, 0)
s = 136: (0, 61, 32, 86, 14, 23, 42, 109, 32, 10, 15, 0)
s = 137: (0, 37, 38, 76, 26, 19, 29, 121, 29, 6, 18, 0)
s = 138: (0, 43, 30, 64, 27, 19, 43, 126, 37, 11, 9, 0)
s = 139: (0, 32, 48, 75, 23, 26, 35, 100, 34, 15, 19, 0)
s = 140: (0, 39, 40, 50, 28, 28, 34, 128, 31, 8, 16, 0)
s = 141: (0, 52, 26, 65, 27, 23, 31, 128, 48, 7, 26, 0)
s = 142: (0, 65, 32, 57, 23, 30, 21, 180, 44, 12, 20, 0)
s = 143: (0, 60, 23, 77, 20, 24, 21, 158, 39, 9, 15, 0)
s = 144: (0, 65, 19, 137, 32, 15, 63, 88, 72, 13, 17, 0)
s = 145: (0, 49, 35, 133, 15, 15, 31, 136, 69, 10, 18, 0)
s = 146: (0, 37, 44, 113, 31, 25, 45, 219, 23, 16, 22, 0)
s = 147: (0, 35, 28, 83, 18, 13, 44, 226, 48, 15, 11, 0)
s = 148: (0, 37, 31, 80, 27, 27, 44, 121, 36, 7, 22, 0)
s = 149: (0, 62, 25, 77, 16, 16, 22, 166, 52, 7, 18, 0)
s = 150: (0, 66, 18, 73, 30, 13, 52, 97, 42, 15, 19, 0)
s = 151: (0, 53, 31, 88, 17, 22, 32, 101, 58, 9, 22, 0)
s = 152: (0, 64, 33, 103, 17, 15, 26, 128, 29, 16, 15, 0)
s = 153: (0, 53, 36, 120, 21, 17, 35, 160, 24, 9, 15, 0)
s = 154: (0, 49, 45, 58, 41, 24, 25, 210, 37, 7, 18, 0)
s = 155: (0, 68, 32, 52, 20, 22, 36, 147, 31, 15, 11, 0)
s = 156: (0, 44, 36, 112, 35, 26, 23, 161, 34, 10, 17, 0)
s = 157: (0, 35, 29, 66, 18, 20, 37, 166, 34, 11, 11, 0)
s = 158: (0, 54, 41, 61, 18, 11, 26, 236, 29, 10, 15, 0)
s = 159: (0, 42, 25, 53, 12, 24, 37, 104, 29, 17, 15, 0)
s = 160: (0, 54, 23, 52, 30, 27, 33, 184, 60, 9, 11, 0)
s = 161: (0, 57, 42, 118, 24, 21, 52, 79, 34, 7, 13, 0)
s = 162: (0, 42, 32, 86, 34, 32, 37, 113, 36, 10, 10, 0)
s = 163: (0, 48, 38, 50, 23, 25, 36, 125, 30, 14, 12, 0)
s = 164: (0, 72, 23, 110, 28, 23, 41, 173, 42, 7, 20, 0)
s = 165: (0, 72, 47, 51, 18, 20, 27, 96, 26, 6, 20, 0)
s = 166: (0, 60, 24, 73, 29, 23, 37, 106, 32, 8, 17, 0)
s = 167: (0, 46, 30, 73, 40, 16, 35, 74, 37, 13, 17, 0)
s = 168: (0, 71, 35, 123, 22, 14, 34, 135, 45, 11, 17, 0)
s = 169: (0, 63, 26, 91, 20, 13, 32, 134, 45, 9, 10, 0)
s = 170: (0, 59, 35, 74, 17, 17, 30, 103, 43, 9, 11, 0)
s = 171: (0, 36, 44, 83, 36, 19, 46, 155, 47, 9, 14, 0)
s = 172: (0, 87, 27, 75, 27, 13, 18, 116, 46, 9, 17, 0)
s = 173: (0, 70, 37, 52, 15, 20, 24, 186, 31, 8, 17, 0)
s = 174: (0, 29, 29, 110, 19, 24, 28, 90, 40, 10, 20, 0)
s = 175: (0, 83, 31, 93, 25, 29, 53, 78, 48, 10, 17, 0)
s = 176: (0, 35, 22, 93, 13, 34, 21, 230, 68, 11, 14, 0)
s = 177: (0, 47, 44, 64, 34, 29, 23, 166, 27, 15, 12, 0)
s = 178: (0, 50, 28, 103, 14, 18, 29, 129, 37, 9, 24, 0)
s = 179: (0, 51, 23, 93, 29, 13, 23, 119, 43, 7, 10, 0)
s = 180: (0, 34, 35, 101, 22, 26, 31, 102, 35, 10, 15, 0)
s = 181: (0, 51, 30, 99, 26, 19, 29, 144, 52, 8, 19, 0)
s = 182: (0, 72, 24, 101, 17, 20, 46, 250, 41, 10, 12, 0)
s = 183: (0, 54, 23, 103, 19, 29, 39, 109, 41, 12, 10, 0)
s = 184: (0, 46, 43, 60, 20, 30, 31, 98, 35, 7, 14, 0)
s = 185: (0, 51, 23, 95, 39, 11, 29, 90, 50, 11, 9, 0)
s = 186: (0, 83, 33, 92, 29, 22, 37, 257, 48, 9, 10, 0)
s = 187: (0, 53, 35, 65, 13, 26, 48, 132, 38, 6, 24, 0)
s = 188: (0, 39, 29, 61, 24, 27, 44, 113, 31, 10, 10, 0)
s = 189: (0, 54, 24, 72, 17, 26, 32, 79, 30, 7, 19, 0)
s = 190: (0, 73, 35, 75, 42, 24, 27, 162, 44, 9, 13, 0)
s = 191: (0, 61, 27, 109, 14, 24, 28, 198, 48, 8, 18, 0)
s = 192: (0, 72, 31, 90, 25, 32, 34, 91, 48, 11, 15, 0)
s = 193: (0, 53, 31, 144, 14, 18, 30, 129, 51, 18, 15, 0)
s = 194: (0, 59, 49, 66, 27, 14, 39, 119, 46, 8, 18, 0)
s = 195: (0, 42, 37, 67, 28, 18, 37, 108, 46, 6, 14, 0)
s = 196: (0, 45, 34, 64, 22, 22, 38, 184, 41, 7, 16, 0)
s = 197: (0, 43, 28, 78, 33, 19, 39, 129, 27, 13, 13, 0)
s = 198: (0, 42, 30, 103, 25, 17, 24, 107, 39, 12, 13, 0)
s = 199: (0, 40, 27, 73, 15, 29, 24, 232, 26, 7, 10, 0)
s = 200: (0, 41, 28, 61, 17, 23, 52, 110, 45, 15, 12, 0)
------------------------------------------------------------------------
RESOURCE k = 2
s = 1: (0, 46, 29, 49, 35, 17, 57, 136, 43, 8, 17, 0)
s = 2: (0, 45, 39, 42, 37, 23, 36, 74, 61, 10, 20, 0)
s = 3: (0, 65, 34, 65, 32, 22, 51, 158, 51, 6, 16, 0)
s = 4: (0, 39, 24, 40, 31, 27, 34, 70, 62, 10, 20, 0)
s = 5: (0, 62, 28, 44, 26, 34, 30, 104, 64, 5, 15, 0)
s = 6: (0, 38, 41, 83, 44, 38, 34, 109, 51, 6, 16, 0)
s = 7: (0, 46, 33, 50, 26, 43, 38, 96, 79, 6, 15, 0)
s = 8: (0, 42, 20, 61, 47, 31, 44, 107, 32, 13, 14, 0)
s = 9: (0, 53, 49, 32, 29, 36, 67, 87, 64, 8, 20, 0)
s = 10: (0, 33, 30, 60, 33, 45, 55, 83, 58, 9, 19, 0)
s = 11: (0, 63, 46, 48, 20, 32, 35, 141, 49, 5, 15, 0)
s = 12: (0, 61, 33, 43, 21, 20, 46, 147, 50, 8, 18, 0)
s = 13: (0, 51, 42, 54, 31, 19, 51, 148, 39, 6, 28, 0)
s = 14: (0, 61, 27, 64, 39, 36, 44, 64, 53, 7, 15, 0)
s = 15: (0, 32, 49, 63, 35, 31, 53, 120, 44, 13, 22, 0)
s = 16: (0, 65, 36, 56, 56, 27, 28, 95, 82, 6, 31, 0)
s = 17: (0, 46, 41, 64, 35, 33, 46, 146, 83, 7, 18, 0)
s = 18: (0, 53, 28, 37, 29, 48, 65, 76, 62, 10, 27, 0)
s = 19: (0, 64, 34, 61, 28, 23, 46, 75, 45, 7, 13, 0)
s = 20: (0, 52, 39, 67, 25, 46, 41, 133, 49, 10, 15, 0)
s = 21: (0, 39, 35, 48, 40, 17, 47, 63, 74, 13, 24, 0)
s = 22: (0, 35, 37, 36, 34, 27, 39, 118, 44, 9, 12, 0)
s = 23: (0, 65, 52, 50, 43, 25, 38, 93, 88, 6, 17, 0)
s = 24: (0, 48, 29, 80, 41, 29, 33, 82, 43, 8, 33, 0)
s = 25: (0, 69, 40, 79, 23, 29, 57, 89, 46, 7, 17, 0)
s = 26: (0, 61, 35, 53, 31, 41, 33, 123, 65, 8, 18, 0)
s = 27: (0, 63, 42, 55, 26, 21, 49, 145, 75, 12, 24, 0)
s = 28: (0, 49, 26, 38, 44, 21, 50, 118, 74, 9, 18, 0)
s = 29: (0, 51, 36, 37, 39, 32, 41, 143, 33, 13, 19, 0)
s = 30: (0, 75, 47, 67, 45, 29, 39, 71, 47, 8, 12, 0)
s = 31: (0, 43, 34, 74, 31, 34, 26, 140, 44, 8, 20, 0)
s = 32: (0, 55, 26, 37, 51, 29, 27, 69, 40, 7, 16, 0)
s = 33: (0, 47, 40, 39, 32, 19, 40, 83, 50, 8, 16, 0)
s = 34: (0, 49, 41, 52, 33, 40, 30, 94, 49, 6, 17, 0)
s = 35: (0, 33, 41, 40, 40, 20, 56, 121, 50, 5, 22, 0)
s = 36: (0, 64, 24, 41, 25, 23, 55, 83, 41, 8, 13, 0)
s = 37: (0, 44, 30, 34, 23, 23, 33, 61, 51, 8, 16, 0)
s = 38: (0, 66, 46, 81, 36, 24, 40, 88, 42, 8, 30, 0)
s = 39: (0, 46, 47, 61, 27, 21, 46, 148, 55, 10, 14, 0)
s = 40: (0, 52, 36, 45, 23, 16, 53, 75, 39, 11, 22, 0)
s = 41: (0, 54, 28, 30, 26, 21, 36, 74, 41, 8, 22, 0)
s = 42: (0, 78, 58, 62, 40, 28, 55, 131, 75, 6, 16, 0)
s = 43: (0, 71, 34, 45, 32, 40, 40, 157, 52, 7, 15, 0)
s = 44: (0, 65, 36, 39, 25, 19, 68, 148, 51, 9, 14, 0)
s = 45: (0, 46, 20, 35, 29, 26, 37, 97, 41, 7, 19, 0)
s = 46: (0, 45, 23, 65, 36, 29, 69, 109, 44, 8, 26, 0)
s = 47: (0, 39, 28, 58, 52, 25, 44, 111, 51, 12, 20, 0)
s = 48: (0, 35, 27, 50, 53, 29, 42, 87, 78, 13, 29, 0)
s = 49: (0, 41, 43, 67, 41, 18, 37, 105, 63, 5, 12, 0)
s = 50: (0, 60, 27, 63, 19, 28, 43, 113, 32, 7, 15, 0)
s = 51: (0, 33, 27, 33, 38, 30, 71, 88, 56, 5, 18, 0)
s = 52: (0, 54, 26, 57, 28, 20, 61, 109, 58, 11, 17, 0)
s = 53: (0, 42, 22, 46, 27, 20, 25, 69, 51, 10, 20, 0)
s = 54: (0, 78, 33, 39, 38, 38, 32, 141, 59, 10, 16, 0)
s = 55: (0, 38, 25, 78, 33, 30, 29, 100, 58, 7, 22, 0)
s = 56: (0, 38, 45, 64, 33, 30, 42, 123, 78, 12, 22, 0)
s = 57: (0, 61, 47, 41, 27, 16, 38, 163, 64, 6, 19, 0)
s = 58: (0, 63, 28, 48, 31, 31, 45, 80, 48, 10, 19, 0)
s = 59: (0, 39, 30, 50, 47, 38, 56, 128, 32, 7, 23, 0)
s = 60: (0, 64, 49, 52, 28, 18, 26, 99, 52, 7, 19, 0)
s = 61: (0, 71, 19, 41, 29, 45, 51, 91, 36, 11, 28, 0)
s = 62: (0, 80, 41, 51, 52, 31, 69, 103, 35, 7, 15, 0)
s = 63: (0, 64, 42, 65, 39, 28, 47, 127, 58, 6, 13, 0)
s = 64: (0, 68, 28, 59, 38, 21, 55, 109, 50, 10, 18, 0)
s = 65: (0, 45, 35, 91, 27, 45, 46, 112, 42, 10, 23, 0)
s = 66: (0, 41, 41, 44, 48, 43, 32, 171, 59, 6, 27, 0)
s = 67: (0, 57, 32, 84, 32, 31, 51, 116, 49, 7, 32, 0)
s = 68: (0, 70, 55, 45, 20, 26, 55, 107, 61, 6, 19, 0)
s = 69: (0, 41, 22, 43, 38, 36, 37, 142, 69, 9, 18, 0)
s = 70: (0, 53, 31, 42, 24, 21, 59, 111, 52, 7, 18, 0)
s = 71: (0, 43, 30, 61, 43, 30, 55, 136, 39, 9, 15, 0)
s = 72: (0, 65, 34, 46, 39, 31, 78, 89, 47, 5, 21, 0)
s = 73: (0, 99, 27, 84, 39, 36, 36, 105, 54, 12, 28, 0)
s = 74: (0, 70, 27, 56, 34, 16, 41, 169, 53, 8, 24, 0)
s = 75: (0, 39, 27, 43, 20, 21, 40, 91, 61, 10, 15, 0)
s = 76: (0, 90, 55, 63, 50, 28, 54, 115, 40, 5, 20, 0)
s = 77: (0, 41, 32, 52, 52, 40, 52, 85, 36, 9, 23, 0)
s = 78: (0, 45, 22, 31, 36, 29, 36, 106, 37, 6, 16, 0)
s = 79: (0, 38, 34, 50, 20, 26, 39, 65, 60, 9, 14, 0)
s = 80: (0, 36, 32, 38, 33, 23, 34, 142, 78, 6, 20, 0)
s = 81: (0, 40, 52, 59, 35, 39, 28, 113, 33, 10, 14, 0)
s = 82: (0, 82, 36, 50, 33, 21, 58, 126, 41, 6, 13, 0)
s = 83: (0, 65, 36, 55, 39, 36, 51, 82, 37, 9, 18, 0)
s = 84: (0, 38, 48, 47, 46, 22, 43, 157, 93, 9, 23, 0)
s = 85: (0, 63, 54, 53, 24, 32, 57, 131, 32, 7, 15, 0)
s = 86: (0, 41, 34, 62, 50, 24, 56, 109, 45, 11, 21, 0)
s = 87: (0, 43, 21, 41, 23, 23, 61, 168, 83, 7, 33, 0)
s = 88: (0, 82, 50, 60, 33, 36, 28, 83, 57, 11, 26, 0)
s = 89: (0, 58, 39, 32, 44, 36, 29, 144, 37, 13, 15, 0)
s = 90: (0, 64, 38, 41, 40, 22, 45, 136, 51, 8, 16, 0)
s = 91: (0, 39, 23, 66, 40, 27, 36, 121, 41, 7, 17, 0)
s = 92: (0, 37, 47, 47, 28, 31, 35, 66, 41, 9, 13, 0)
s = 93: (0, 35, 37, 64, 41, 38, 49, 121, 35, 6, 25, 0)
s = 94: (0, 31, 37, 32, 56, 24, 34, 97, 34, 9, 28, 0)
s = 95: (0, 39, 26, 61, 39, 23, 50, 94, 34, 5, 15, 0)
s = 96: (0, 37, 46, 49, 28, 28, 41, 60, 60, 7, 19, 0)
s = 97: (0, 58, 42, 69, 24, 17, 44, 79, 89, 7, 11, 0)
s = 98: (0, 72, 38, 42, 30, 21, 47, 97, 36, 11, 26, 0)
s = 99: (0, 70, 43, 36, 20, 38, 36, 92, 40, 6, 16, 0)
s = 100: (0, 87, 34, 55, 25, 31, 52, 85, 45, 6, 12, 0)
s = 101: (0, 49, 40, 55, 36, 31, 24, 97, 54, 9, 17, 0)
s = 102: (0, 35, 54, 35, 26, 20, 42, 63, 65, 7, 20, 0)
s = 103: (0, 37, 28, 50, 19, 21, 45, 121, 39, 6, 23, 0)
s = 104: (0, 35, 22, 92, 36, 19, 57, 88, 52, 7, 18, 0)
s = 105: (0, 48, 24, 42, 46, 24, 39, 97, 31, 11, 13, 0)
s = 106: (0, 80, 47, 53, 41, 20, 60, 112, 35, 6, 26, 0)
s = 107: (0, 42, 23, 52, 29, 30, 24, 85, 71, 8, 20, 0)
s = 108: (0, 58, 24, 39, 55, 30, 41, 138, 48, 7, 13, 0)
s = 109: (0, 65, 30, 57, 43, 27, 27, 76, 56, 10, 15, 0)
s = 110: (0, 58, 19, 63, 27, 32, 44, 60, 47, 11, 29, 0)
s = 111: (0, 42, 32, 69, 32, 36, 34, 83, 85, 6, 23, 0)
s = 112: (0, 47, 29, 77, 43, 28, 40, 82, 63, 12, 17, 0)
s = 113: (0, 51, 62, 47, 52, 16, 35, 116, 45, 6, 14, 0)
s = 114: (0, 46, 47, 70, 27, 25, 29, 100, 36, 5, 18, 0)
s = 115: (0, 49, 22, 34, 44, 25, 39, 62, 51, 6, 20, 0)
s = 116: (0, 42, 40, 72, 19, 31, 36, 78, 54, 9, 14, 0)
s = 117: (0, 63, 39, 41, 20, 39, 48, 128, 30, 8, 15, 0)
s = 118: (0, 39, 50, 93, 42, 33, 29, 117, 37, 6, 14, 0)
s = 119: (0, 76, 46, 34, 26, 21, 29, 116, 63, 5, 16, 0)
s = 120: (0, 90, 43, 77, 18, 29, 36, 113, 63, 13, 30, 0)
s = 121: (0, 63, 27, 84, 40, 18, 54, 72, 44, 8, 18, 0)
s = 122: (0, 78, 27, 71, 38, 33, 36, 162, 64, 9, 27, 0)
s = 123: (0, 47, 23, 50, 27, 25, 49, 97, 57, 6, 19, 0)
s = 124: (0, 55, 43, 69, 37, 28, 47, 144, 55, 5, 18, 0)
s = 125: (0, 49, 47, 41, 20, 43, 57, 188, 89, 6, 14, 0)
s = 126: (0, 49, 25, 53, 25, 17, 46, 84, 59, 6, 12, 0)
s = 127: (0, 38, 38, 51, 32, 22, 28, 153, 33, 11, 20, 0)
s = 128: (0, 60, 21, 39, 28, 31, 67, 103, 61, 12, 21, 0)
s = 129: (0, 51, 25, 92, 30, 15, 55, 69, 78, 10, 19, 0)
s = 130: (0, 51, 27, 35, 47, 39, 49, 101, 52, 7, 23, 0)
s = 131: (0, 39, 32, 65, 21, 27, 32, 107, 60, 9, 19, 0)
s = 132: (0, 44, 40, 52, 40, 16, 57, 71, 61, 9, 27, 0)
s = 133: (0, 53, 25, 65, 20, 17, 32, 78, 42, 5, 18, 0)
s = 134: (0, 43, 43, 39, 22, 16, 43, 67, 50, 8, 16, 0)
s = 135: (0, 54, 29, 42, 21, 30, 38, 113, 55, 7, 13, 0)
s = 136: (0, 61, 34, 55, 20, 32, 57, 87, 41, 8, 19, 0)
s = 137: (0, 37, 41, 49, 37, 26, 40, 97, 37, 5, 23, 0)
s = 138: (0, 43, 32, 41, 39, 27, 58, 101, 48, 9, 11, 0)
s = 139: (0, 32, 51, 48, 34, 36, 48, 80, 43, 12, 24, 0)
s = 140: (0, 39, 42, 32, 41, 38, 47, 103, 39, 6, 21, 0)
s = 141: (0, 52, 28, 42, 38, 32, 42, 103, 61, 6, 32, 0)
s = 142: (0, 65, 33, 37, 34, 42, 29, 144, 57, 10, 25, 0)
s = 143: (0, 60, 24, 50, 29, 34, 28, 127, 50, 8, 19, 0)
s = 144: (0, 65, 20, 88, 47, 21, 86, 71, 93, 11, 22, 0)
s = 145: (0, 49, 37, 86, 21, 21, 42, 109, 89, 8, 22, 0)
s = 146: (0, 37, 46, 73, 45, 35, 61, 176, 29, 13, 28, 0)
s = 147: (0, 35, 30, 54, 26, 18, 60, 181, 61, 12, 14, 0)
s = 148: (0, 37, 33, 52, 40, 37, 60, 97, 46, 6, 28, 0)
s = 149: (0, 62, 26, 50, 23, 23, 30, 133, 66, 5, 22, 0)
s = 150: (0, 66, 19, 47, 43, 18, 71, 77, 54, 12, 23, 0)
s = 151: (0, 53, 33, 57, 25, 30, 44, 81, 74, 8, 28, 0)
s = 152: (0, 64, 35, 66, 24, 21, 35, 102, 37, 13, 19, 0)
s = 153: (0, 53, 38, 78, 31, 24, 47, 128, 31, 7, 19, 0)
s = 154: (0, 49, 48, 38, 60, 33, 34, 168, 48, 6, 23, 0)
s = 155: (0, 68, 34, 34, 29, 31, 49, 117, 40, 12, 14, 0)
s = 156: (0, 44, 38, 72, 51, 36, 31, 129, 43, 8, 22, 0)
s = 157: (0, 35, 31, 43, 26, 28, 50, 133, 43, 9, 13, 0)
s = 158: (0, 54, 43, 40, 26, 16, 36, 189, 37, 8, 18, 0)
s = 159: (0, 42, 27, 34, 17, 33, 50, 84, 37, 13, 18, 0)
s = 160: (0, 54, 25, 33, 43, 37, 44, 147, 77, 7, 13, 0)
s = 161: (0, 57, 45, 76, 35, 29, 70, 63, 43, 5, 17, 0)
s = 162: (0, 42, 34, 56, 49, 45, 50, 91, 46, 8, 12, 0)
s = 163: (0, 48, 40, 32, 33, 35, 49, 100, 38, 11, 16, 0)
s = 164: (0, 72, 24, 71, 40, 32, 55, 138, 54, 6, 25, 0)
s = 165: (0, 72, 50, 33, 26, 27, 37, 77, 33, 5, 25, 0)
s = 166: (0, 60, 26, 47, 42, 32, 50, 85, 40, 7, 21, 0)
s = 167: (0, 46, 32, 47, 57, 22, 47, 59, 47, 10, 21, 0)
s = 168: (0, 71, 37, 79, 32, 20, 46, 108, 58, 9, 21, 0)
s = 169: (0, 63, 28, 59, 29, 19, 44, 107, 58, 7, 13, 0)
s = 170: (0, 59, 37, 48, 25, 24, 40, 83, 55, 7, 13, 0)
s = 171: (0, 36, 47, 54, 52, 26, 62, 124, 60, 7, 18, 0)
s = 172: (0, 87, 29, 48, 38, 19, 25, 93, 59, 7, 22, 0)
s = 173: (0, 70, 40, 34, 22, 28, 33, 149, 40, 7, 21, 0)
s = 174: (0, 29, 31, 71, 28, 33, 38, 72, 51, 8, 25, 0)
s = 175: (0, 83, 33, 60, 37, 41, 71, 63, 61, 8, 22, 0)
s = 176: (0, 35, 23, 60, 19, 47, 29, 184, 88, 9, 17, 0)
s = 177: (0, 47, 47, 41, 49, 40, 31, 133, 34, 12, 16, 0)
s = 178: (0, 50, 30, 66, 21, 24, 39, 103, 47, 7, 31, 0)
s = 179: (0, 51, 25, 60, 41, 18, 31, 95, 55, 6, 13, 0)
s = 180: (0, 34, 37, 65, 32, 36, 42, 82, 45, 8, 19, 0)
s = 181: (0, 51, 32, 64, 38, 26, 39, 115, 67, 7, 24, 0)
s = 182: (0, 72, 25, 65, 24, 28, 62, 200, 53, 8, 15, 0)
s = 183: (0, 54, 24, 67, 27, 41, 53, 87, 53, 10, 13, 0)
s = 184: (0, 46, 45, 39, 29, 42, 43, 78, 45, 6, 17, 0)
s = 185: (0, 51, 24, 61, 56, 15, 40, 72, 64, 9, 12, 0)
s = 186: (0, 83, 35, 60, 42, 31, 50, 206, 61, 7, 12, 0)
s = 187: (0, 53, 37, 42, 19, 36, 65, 105, 48, 5, 30, 0)
s = 188: (0, 39, 31, 40, 35, 38, 60, 91, 40, 8, 12, 0)
s = 189: (0, 54, 25, 47, 25, 37, 43, 63, 38, 6, 24, 0)
s = 190: (0, 73, 37, 48, 60, 33, 37, 130, 57, 7, 17, 0)
s = 191: (0, 61, 28, 70, 21, 34, 38, 158, 61, 7, 23, 0)
s = 192: (0, 72, 33, 58, 36, 44, 46, 73, 61, 9, 19, 0)
s = 193: (0, 53, 33, 93, 20, 24, 40, 103, 66, 14, 19, 0)
s = 194: (0, 59, 52, 42, 39, 20, 53, 96, 59, 6, 23, 0)
s = 195: (0, 42, 39, 43, 41, 25, 50, 86, 59, 5, 17, 0)
s = 196: (0, 45, 36, 42, 32, 30, 52, 147, 53, 5, 20, 0)
s = 197: (0, 43, 29, 50, 47, 27, 53, 104, 35, 10, 17, 0)
s = 198: (0, 42, 32, 66, 36, 24, 32, 86, 51, 10, 16, 0)
s = 199: (0, 40, 29, 47, 22, 41, 32, 185, 33, 5, 12, 0)
s = 200: (0, 41, 29, 39, 25, 33, 71, 88, 57, 12, 16, 0)
************************************************************************
ES/LS-VALUES:
jobnr.   ES(i)    LS(i)
------------------------------------------------------------------------
  0        0        0
  1        0       58
  2        0       78
  3        0       57
  4       10       68
  5       13       72
  6       16       76
  7        5       64
  8       10       78
  9       22       82
 10       21       82
 11       23       84
************************************************************************
BIG-M-VALUES:
M1 = 63, M2 = 463
************************************************************************
